NAME : amtsp
TYPE : ATSP
DIMENSION : 7
EDGE_WEIGHT_TYPE : EXPLICIT
EDGE_WEIGHT_FORMAT : FULL_MATRIX
EDGE_WEIGHT_SECTION
0 298 201656 201525 202996 202077 203318 
0 0 280 632 2255 640 2075 
0 280 0 379 2067 380 1887 
0 632 379 0 2447 760 2267 
0 2255 2067 2447 0 2042 179 
0 640 380 760 2042 0 1862 
0 2075 1887 2267 179 1862 0 
